c nIsolatedPIs 0
c maxPI 8
p cnf 57 148
c gate 9 5 6 0
5 -9 0
6 -9 0
-5 -6 9 0
c gate 10 -7 -8 0
-7 -10 0
-8 -10 0
7 8 10 0
c gate 11 9 10 0
9 -11 0
10 -11 0
-9 -10 11 0
c gate 12 1 -2 0
1 -12 0
-2 -12 0
-1 2 12 0
c gate 13 11 12 0
11 -13 0
12 -13 0
-11 -12 13 0
c gate 14 5 -6 0
5 -14 0
-6 -14 0
-5 6 14 0
c gate 15 -1 2 0
-1 -15 0
2 -15 0
1 -2 15 0
c gate 16 10 15 0
10 -16 0
15 -16 0
-10 -15 16 0
c gate 17 14 16 0
14 -17 0
16 -17 0
-14 -16 17 0
c gate 18 -13 -17 0
-13 -18 0
-17 -18 0
13 17 18 0
c gate 19 4 -18 0
4 -19 0
-18 -19 0
-4 18 19 0
c gate 20 -5 -6 0
-5 -20 0
-6 -20 0
5 6 20 0
c gate 21 8 9 0
8 -21 0
9 -21 0
-8 -9 21 0
c gate 22 -20 -21 0
-20 -22 0
-21 -22 0
20 21 22 0
c gate 23 1 8 0
1 -23 0
8 -23 0
-1 -8 23 0
c gate 24 2 -4 0
2 -24 0
-4 -24 0
-2 4 24 0
c gate 25 -7 24 0
-7 -25 0
24 -25 0
7 -24 25 0
c gate 26 -23 25 0
-23 -26 0
25 -26 0
23 -25 26 0
c gate 27 -22 26 0
-22 -27 0
26 -27 0
22 -26 27 0
c gate 28 -19 -27 0
-19 -28 0
-27 -28 0
19 27 28 0
c gate 29 3 -28 0
3 -29 0
-28 -29 0
-3 28 29 0
c gate 30 -3 -4 0
-3 -30 0
-4 -30 0
3 4 30 0
c gate 31 3 4 0
3 -31 0
4 -31 0
-3 -4 31 0
c gate 32 -6 31 0
-6 -32 0
31 -32 0
6 -31 32 0
c gate 33 -30 -32 0
-30 -33 0
-32 -33 0
30 32 33 0
c gate 34 1 -33 0
1 -34 0
-33 -34 0
-1 33 34 0
c gate 35 -1 6 0
-1 -35 0
6 -35 0
1 -6 35 0
c gate 36 31 35 0
31 -36 0
35 -36 0
-31 -35 36 0
c gate 37 -34 -36 0
-34 -37 0
-36 -37 0
34 36 37 0
c gate 38 -2 5 0
-2 -38 0
5 -38 0
2 -5 38 0
c gate 39 7 8 0
7 -39 0
8 -39 0
-7 -8 39 0
c gate 40 38 39 0
38 -40 0
39 -40 0
-38 -39 40 0
c gate 41 -37 40 0
-37 -41 0
40 -41 0
37 -40 41 0
c gate 42 11 30 0
11 -42 0
30 -42 0
-11 -30 42 0
c gate 43 -3 4 0
-3 -43 0
4 -43 0
3 -4 43 0
c gate 44 7 -8 0
7 -44 0
-8 -44 0
-7 8 44 0
c gate 45 9 44 0
9 -45 0
44 -45 0
-9 -44 45 0
c gate 46 43 45 0
43 -46 0
45 -46 0
-43 -45 46 0
c gate 47 -42 -46 0
-42 -47 0
-46 -47 0
42 46 47 0
c gate 48 15 -47 0
15 -48 0
-47 -48 0
-15 47 48 0
c gate 49 14 43 0
14 -49 0
43 -49 0
-14 -43 49 0
c gate 50 3 20 0
3 -50 0
20 -50 0
-3 -20 50 0
c gate 51 -49 -50 0
-49 -51 0
-50 -51 0
49 50 51 0
c gate 52 1 2 0
1 -52 0
2 -52 0
-1 -2 52 0
c gate 53 44 52 0
44 -53 0
52 -53 0
-44 -52 53 0
c gate 54 -51 53 0
-51 -54 0
53 -54 0
51 -53 54 0
c gate 55 -48 -54 0
-48 -55 0
-54 -55 0
48 54 55 0
c gate 56 -41 55 0
-41 -56 0
55 -56 0
41 -55 56 0
c gate 57 -29 56 0
-29 -57 0
56 -57 0
29 -56 57 0
c PO
-57 0
